; benchmark generated from python API
(set-info :status unknown)
(declare-fun A_2 () Real)
(declare-fun L_2 () Real)
(declare-fun S_2 () Real)
(declare-fun S_3 () Real)
(declare-fun A_3 () Real)
(declare-fun S_1 () Real)
(declare-fun A_1 () Real)
(declare-fun L_1 () Real)
(declare-fun S_0 () Real)
(declare-fun L_0 () Real)
(declare-fun A_0 () Real)
(declare-fun loss_rate_tol () Real)
(declare-fun A_4 () Real)
(assert
 (let ((?x934 (* (- 1.0) A_0)))
 (let ((?x5534 (* (/ 3.0 2.0) S_3)))
 (let ((?x5575 (* (- (/ 3.0 2.0)) A_1)))
 (let (($x298371 (not (<= 0.0 (+ (* (/ 5.0 2.0) L_1) ?x5575 ?x5534 S_0 ?x934)))))
 (let (($x290485 (not (<= 0.0 loss_rate_tol))))
 (let ((?x880 (* (- 1.0) A_4)))
 (let ((?x5436 (* (/ 1.0 2.0) S_3)))
 (let ((?x5496 (* (- (/ 1.0 2.0)) A_1)))
 (let ((?x5508 (* (/ 1.0 2.0) L_1)))
 (let (($x290456 (not (<= 0.0 (+ ?x5508 ?x5496 ?x5436 ?x880 A_3 loss_rate_tol)))))
 (let ((?x1530 (* (- 2.0) A_1)))
 (let ((?x837 (* (- 1.0) L_2)))
 (let ((?x1498 (* 2.0 L_1)))
 (let ((?x819 (* (- 1.0) L_0)))
 (let (($x287756 (not (<= 0.0 (+ A_0 ?x819 ?x1498 ?x837 ?x1530 A_2)))))
 (let (($x14993 (<= (+ ?x819 L_2) 0.0)))
 (let (($x10302 (<= (+ (* (- 1.0) L_1) L_2) 0.0)))
 (let (($x8700 (not $x10302)))
 (let ((?x9569 (* 4.0 S_2)))
 (let ((?x1904 (* (- 4.0) A_1)))
 (let ((?x1527 (* 5.0 L_1)))
 (let (($x291797 (<= 0.0 (+ A_3 L_1 (* (- 1.0) A_1) S_2 ?x880 loss_rate_tol))))
 (let (($x291836 (not $x291797)))
 (let ((?x828 (* (- 1.0) L_1)))
 (let (($x699 (= ?x837 ?x828)))
 (let (($x288410 (not $x699)))
 (let (($x349554 (or $x14993 $x288410 $x290485 (not (<= (+ ?x828 A_1 (* (- 1.0) S_2)) (- 5.0))) $x291836 (not (<= 0.0 (+ ?x1527 ?x1904 ?x9569 S_0 ?x934 A_3 ?x880))))))
 (let (($x319892 (<= (- 15.0) (+ ?x828 A_1 (* (- 1.0) S_1) ?x880 A_0 loss_rate_tol))))
 (let (($x319893 (not $x319892)))
 (let (($x303212 (not (<= (- 25.0) (+ A_2 ?x837 L_1 ?x880)))))
 (let (($x303200 (<= (- 20.0) (+ (* 2.0 A_0) ?x819 (* (- 1.0) S_1) ?x880 loss_rate_tol))))
 (let (($x303201 (not $x303200)))
 (let (($x301035 (<= (- 10.0) (+ A_2 ?x837 (* (- 1.0) S_1) ?x880 A_0 loss_rate_tol))))
 (let (($x301036 (not $x301035)))
 (let (($x294380 (<= (- 5.0) (+ A_3 ?x828 (* (- 1.0) S_1) ?x880 A_0 loss_rate_tol))))
 (let (($x294381 (not $x294380)))
 (let (($x294194 (not (<= (- 5.0) (+ (* (/ 1.0 4.0) A_3) (* (- (/ 1.0 4.0)) A_4))))))
 (let (($x294028 (not (<= (- 30.0) (+ ?x828 A_1 L_2 ?x880)))))
 (let ((?x1506 (* (- 2.0) A_4)))
 (let ((?x1668 (* 2.0 L_2)))
 (let ((?x1672 (* (- 2.0) L_0)))
 (let ((?x1469 (* 2.0 A_0)))
 (let (($x290183 (not (<= (- 70.0) (+ ?x1469 ?x1672 ?x1668 ?x1506)))))
 (let (($x299243 (<= 0.0 (+ ?x5508 ?x5496 ?x5534 (* (- 1.0) S_1) ?x880 A_0 loss_rate_tol))))
 (let (($x299244 (not $x299243)))
 (let (($x290466 (not (<= (+ (* (- (/ 1.0 2.0)) L_1) (* (/ 1.0 2.0) A_1) (* (- (/ 1.0 2.0)) S_3)) (- 5.0)))))
 (let (($x15188 (<= (+ L_1 ?x819) 0.0)))
 (let ((?x848 (* (- 1.0) A_3)))
 (let ((?x1108 (+ A_2 ?x848)))
 (let (($x6109 (<= ?x1108 (- 5.0))))
 (let ((?x1486 (* (- 1.0) S_1)))
 (let ((?x1667 (* (- 2.0) L_1)))
 (let (($x305031 (not (<= (- 15.0) (+ ?x1667 A_1 ?x1486 ?x880 L_0 A_0 loss_rate_tol)))))
 (let (($x296814 (<= (+ (* (- 1.0) A_1) A_2) 5.0)))
 (let (($x1883 (not (<= (+ L_1 ?x837 (* (- 1.0) A_1) (* 2.0 A_2) ?x848) 0.0))))
 (let ((?x831 (* (- 1.0) A_1)))
 (let ((?x3943 (* (/ 4.0 3.0) S_3)))
 (let ((?x3007 (* (/ 1.0 3.0) L_0)))
 (let ((?x3006 (* (- (/ 1.0 3.0)) A_0)))
 (let (($x294931 (not (<= 0.0 (+ ?x3006 ?x3007 ?x3943 L_1 ?x831)))))
 (let (($x293355 (not (<= 0.0 (+ (* (- 2.0) A_0) L_0 S_3 S_0 L_1)))))
 (let ((?x3003 (* (/ 2.0 3.0) S_3)))
 (let ((?x3023 (* (/ 2.0 3.0) L_0)))
 (let ((?x3018 (* (- (/ 2.0 3.0)) A_0)))
 (let (($x293076 (not (<= 0.0 (+ ?x3018 ?x3023 ?x3003 ?x880 A_2 loss_rate_tol)))))
 (let (($x290356 (not (<= 0.0 (+ ?x880 L_1 ?x837 ?x831 A_2 A_3 loss_rate_tol)))))
 (let ((?x18246 (* 5.0 S_1)))
 (let ((?x5005 (* 5.0 L_0)))
 (let ((?x5060 (* (- 5.0) A_0)))
 (let (($x329413 (not (<= 0.0 (+ A_2 ?x837 ?x5060 ?x5005 ?x18246 ?x880 L_1)))))
 (let (($x295486 (not (<= 0.0 (+ (* (/ 1.0 4.0) A_3) ?x934 L_0 S_1 (* (- (/ 1.0 4.0)) A_4))))))
 (let (($x290861 (<= 0.0 (+ (* (- 12.0) A_0) (* 12.0 L_0) (* 14.0 S_1) ?x1668 ?x1506))))
 (let (($x290862 (not $x290861)))
 (let ((?x1489 (* 2.0 S_1)))
 (let ((?x1493 (* 2.0 L_0)))
 (let ((?x1492 (* (- 2.0) A_0)))
 (let (($x290805 (not (<= 0.0 (+ ?x1492 ?x1493 ?x1489 ?x880 A_2 loss_rate_tol)))))
 (let (($x294477 (<= 0.0 (+ (* 4.0 L_1) (* (- 3.0) A_1) (* 3.0 S_2) S_0 ?x934))))
 (let (($x294478 (not $x294477)))
 (let (($x306589 (<= 0.0 (+ (* (- 4.0) A_0) (* 3.0 L_0) (* 3.0 S_1) S_0 L_1))))
 (let (($x306590 (not $x306589)))
 (let (($x301643 (<= 0.0 (+ (* (- 3.0) A_0) (* 3.0 L_0) (* 4.0 S_1) L_1 ?x831))))
 (let (($x301644 (not $x301643)))
 (let (($x293948 (not (<= 0.0 (+ A_2 ?x837 ?x1492 ?x1493 S_1 ?x880 A_1 loss_rate_tol)))))
 (let ((?x12445 (* 3.0 S_1)))
 (let ((?x1504 (* 3.0 L_0)))
 (let ((?x3732 (* (- 3.0) A_0)))
 (let (($x290983 (not (<= 0.0 (+ ?x3732 ?x1504 ?x12445 ?x880 A_1 loss_rate_tol)))))
 (let (($x290883 (not (<= 0.0 (+ A_3 ?x934 L_0 ?x880 ?x828 A_1 loss_rate_tol)))))
 (let ((?x20295 (* (/ 1.0 3.0) L_1)))
 (let ((?x840 (* (- 1.0) A_2)))
 (let (($x327074 (not (<= 0.0 (+ ?x840 L_2 S_3 ?x20295 (* (/ 1.0 3.0) S_0) ?x3006)))))
 (let (($x298583 (not (<= 0.0 (+ ?x840 L_2 S_3 ?x880 A_3 loss_rate_tol)))))
 (let (($x296815 (<= 0.0 (+ (* 3.0 L_1) ?x1530 (* 2.0 S_3) S_0 ?x934 A_3 ?x880))))
 (let (($x293611 (<= 0.0 (+ (* (- (/ 5.0 2.0)) A_0) (* (/ 3.0 2.0) L_0) (* (/ 3.0 2.0) S_2) S_0 L_1))))
 (let (($x293612 (not $x293611)))
 (let (($x290817 (not (<= 0.0 (+ ?x934 L_0 S_2 ?x880 A_2 loss_rate_tol)))))
 (let (($x292456 (not (<= 0.0 (+ ?x934 L_0 S_3 ?x880 A_1 loss_rate_tol)))))
 (let (($x295151 (not (<= (- 20.0) (+ A_0 ?x819 L_1 ?x831)))))
 (let (($x294766 (not (<= (- 15.0) (+ L_1 S_0 ?x934)))))
 (let (($x293012 (not (<= (+ ?x1492 L_0 S_0 L_1 ?x837 A_2) 10.0))))
 (let (($x292994 (not (<= (+ ?x1469 ?x1672 ?x1498 ?x1530) (- 10.0)))))
 (let (($x291791 (not (<= (- 10.0) (+ ?x880 A_2 loss_rate_tol)))))
 (let (($x287704 (<= 0.0 (+ ?x1492 ?x1493 ?x1489 ?x1506 (* 2.0 A_3) (* 2.0 loss_rate_tol)))))
 (let (($x290096 (not $x287704)))
 (let ((?x4990 (* 2.0 loss_rate_tol)))
 (let ((?x1513 (* 2.0 A_3)))
 (let (($x294654 (not (<= 0.0 (+ ?x1513 L_0 ?x1486 ?x1506 ?x828 ?x837 A_2 ?x4990)))))
 (let ((?x7882 (* (/ 1.0 2.0) L_2)))
 (let ((?x5526 (* (/ 1.0 2.0) A_1)))
 (let ((?x5490 (* (- (/ 1.0 2.0)) L_1)))
 (let ((?x15449 (* (/ 1.0 2.0) A_3)))
 (let (($x292498 (<= 0.0 (+ ?x15449 ?x5490 ?x5526 ?x7882 ?x840))))
 (let ((?x22439 (* (/ 2.0 3.0) L_2)))
 (let ((?x3013 (* (/ 4.0 3.0) L_0)))
 (let ((?x3012 (* (- (/ 4.0 3.0)) A_0)))
 (let ((?x18525 (* (- (/ 2.0 3.0)) A_3)))
 (let (($x19459 (<= (+ ?x18525 ?x3012 ?x3013 ?x1489 ?x22439) 0.0)))
 (let (($x316740 (<= 0.0 (+ ?x840 L_2 (* 2.0 S_3) ?x1486 ?x880 A_0 loss_rate_tol))))
 (let (($x316741 (not $x316740)))
 (let (($x301821 (not (<= (+ A_0 ?x819 L_1 ?x848) (- 15.0)))))
 (let (($x300091 (not (<= (- 5.0) (+ A_2 ?x837 ?x934 L_0 ?x880 A_1 loss_rate_tol)))))
 (let (($x297202 (not $x296814)))
 (let (($x294694 (not (<= (- 15.0) (+ ?x880 A_1 loss_rate_tol)))))
 (let (($x294021 (not (<= (+ ?x880 ?x828 L_2 A_1) (- 15.0)))))
 (let (($x294616 (not (<= 0.0 (+ ?x15449 ?x934 L_0 S_2 (* (- (/ 1.0 2.0)) A_4))))))
 (let (($x291168 (not (<= 0.0 (+ ?x5060 ?x5005 (* 7.0 S_2) ?x1668 ?x1506)))))
 (let (($x293131 (<= (+ ?x18525 (* (/ 2.0 3.0) A_0) (* (- (/ 2.0 3.0)) L_0) ?x22439) (- 10.0))))
 (let ((?x5549 (* (/ 3.0 2.0) A_1)))
 (let ((?x5447 (* (- (/ 3.0 2.0)) L_1)))
 (let ((?x15440 (* (- (/ 1.0 2.0)) A_3)))
 (let (($x15015 (<= (+ ?x15440 ?x5447 ?x5549 ?x7882 L_0 ?x934) 0.0)))
 (let ((?x18749 (* (/ 3.0 2.0) S_2)))
 (let ((?x7951 (* (/ 3.0 2.0) L_0)))
 (let ((?x7950 (* (- (/ 3.0 2.0)) A_0)))
 (let (($x294813 (not (<= 0.0 (+ ?x7950 ?x7951 ?x18749 ?x880 A_1 loss_rate_tol)))))
 (let ((?x7895 (* (- (/ 1.0 2.0)) L_0)))
 (let ((?x7937 (* (/ 1.0 2.0) A_0)))
 (let ((?x7923 (* (- (/ 1.0 2.0)) L_2)))
 (let ((?x8779 (* (/ 1.0 2.0) A_2)))
 (let (($x290806 (<= 0.0 (+ ?x8779 ?x7923 ?x7937 ?x7895 L_1 ?x831))))
 (let (($x290549 (<= (+ ?x840 A_3) 5.0)))
 (let (($x285546 (not $x6109)))
 (let (($x5097 (<= (+ ?x1667 (* 2.0 A_1) (* (- 1.0) S_3) L_0 ?x934) 0.0)))
 (let ((?x11592 (* 4.0 L_2)))
 (let ((?x2612 (* (- 4.0) A_2)))
 (let (($x302723 (<= 0.0 (+ ?x2612 ?x11592 (* 4.0 S_3) ?x934 S_0 L_1 A_3 ?x880))))
 (let (($x5878 (<= (+ S_3 L_2 ?x840 A_3 ?x880) 0.0)))
 (let (($x291495 (not (<= 0.0 (+ ?x934 L_0 S_2 ?x1506 ?x1513 ?x4990)))))
 (let (($x2609 (<= (+ (* (- 1.0) S_3) ?x837 A_2) 0.0)))
 (let (($x293839 (not (<= 0.0 (+ ?x934 L_0 (* 2.0 S_2) L_1 ?x831)))))
 (let (($x304927 (not (<= 0.0 (+ ?x2612 ?x11592 (* 5.0 S_3) L_1 ?x880)))))
 (let (($x13470 (<= (+ A_4 (* (- 3.0) L_1) (* 2.0 A_1) (* (- 3.0) S_3)) 0.0)))
 (let (($x14678 (not $x13470)))
 (let (($x289902 (not $x290549)))
 (let (($x289569 (not (<= (- 5.0) (+ ?x880 A_3 loss_rate_tol)))))
 (let ((?x1495 (* 2.0 A_2)))
 (let ((?x1494 (* (- 2.0) L_2)))
 (let ((?x1481 (* (- 2.0) S_2)))
 (let (($x290917 (not (<= 0.0 (+ ?x1513 ?x1481 ?x1506 ?x1494 ?x1495 ?x4990)))))
 (let (($x308818 (not (<= 0.0 (+ L_0 (* 2.0 S_2) ?x1486 ?x880 loss_rate_tol)))))
 (let (($x301452 (<= 0.0 (+ ?x1513 A_0 L_0 S_2 (* (- 2.0) S_1) ?x1506 ?x1667 ?x4990))))
 (let (($x301453 (not $x301452)))
 (let (($x307943 (<= 0.0 (+ ?x1498 ?x1530 (* 3.0 S_2) ?x1486 ?x880 A_0 loss_rate_tol))))
 (let (($x307944 (not $x307943)))
 (let (($x294992 (not (<= 0.0 (+ A_3 ?x831 S_2 ?x1486 ?x880 A_0 loss_rate_tol)))))
 (let (($x291563 (<= 0.0 (+ ?x1513 ?x934 (* (- 1.0) S_3) L_0 ?x1506 ?x1494 ?x1495 ?x4990))))
 (let (($x291564 (not $x291563)))
 (let (($x850269 (or $x290485 $x298583 (not (<= 0.0 (+ ?x2612 ?x11592 (* 5.0 S_3) ?x880 L_1))))))
 (let (($x298230 (not (<= 0.0 (+ (* (/ 2.0 3.0) A_0) ?x3007 ?x3943 ?x1486 ?x880 loss_rate_tol)))))
 (let (($x289839 (<= 0.0 (+ (* (- (/ 8.0 3.0)) A_0) (* (/ 8.0 3.0) L_0) (* (/ 14.0 3.0) S_3) ?x1668 ?x1506))))
 (let (($x289659 (not $x289839)))
 (let (($x290969 (not (<= 0.0 (+ ?x3018 ?x3023 ?x3003 ?x1506 ?x1513 ?x4990)))))
 (let (($x216784 (not (<= 0.0 (+ ?x1527 (* (- 5.0) A_1) (* 6.0 S_2) L_2 ?x880)))))
 (let (($x21790 (<= (+ A_3 ?x828 A_1 ?x1481 ?x837) 0.0)))
 (let (($x5914 (<= (+ ?x828 A_1 L_2 (* (- 2.0) A_2) A_3) 0.0)))
 (let ((?x3306 (* 5.0 A_2)))
 (let ((?x3325 (* (- 6.0) A_1)))
 (let ((?x3294 (* (- 5.0) L_2)))
 (let ((?x3348 (* 6.0 L_1)))
 (let (($x290513 (not (<= 0.0 (+ A_0 ?x819 ?x3348 ?x3294 ?x3325 ?x3306 A_3 ?x880)))))
 (let (($x352597 (or $x14993 $x291564 $x291791 $x292994 (not (<= (+ ?x1492 L_0 S_0 A_1) 5.0)) (not (<= (+ ?x1469 ?x819 (* (- 1.0) S_0) ?x880 ?x828 L_2) (- 20.0))) (not (<= (+ ?x1492 L_0 S_0 A_2) 10.0)) (not (<= (- 15.0) (+ ?x934 S_0 L_1))))))
 (let (($x364237 (or (not (<= (+ L_1 ?x831 (* 2.0 S_2) L_2 ?x848) 0.0)) $x216784 $x290485 $x291495)))
 (let (($x833840 (or $x14993 (<= (+ ?x840 L_2 S_3 A_0 ?x819 L_1 ?x831) 0.0) $x290485 $x298583 $x327074)))
 (let (($x464561 (or $x14993 (not (<= (+ A_0 ?x819 L_2 ?x840) (- 10.0))) $x294021 $x294694 $x294766 $x295151 $x297202 $x301821)))
 (let (($x298334 (<= 0.0 (+ (* (/ 2.0 3.0) A_0) ?x3013 ?x3943 ?x1486 ?x880 ?x828 loss_rate_tol))))
 (let (($x449857 (or $x8700 $x14993 (<= (+ (* (/ 3.0 2.0) A_0) ?x7895 (* (/ 1.0 2.0) S_2) ?x1486 ?x831) 0.0) $x290485 $x293612 $x301453 $x308818)))
 (let ((?x1382 (* 2.0 S_3)))
 (let (($x317355 (<= 0.0 (+ ?x840 L_2 ?x1382 ?x828 ?x1486 ?x880 L_0 A_0 loss_rate_tol))))
 (let (($x292724 (<= (+ ?x15440 ?x5490 ?x5526 ?x7882) (- 5.0))))
 (let (($x290476 (<= (+ L_1 ?x831 ?x819 A_0) (- 5.0))))
 (let (($x471757 (or $x15188 $x289569 $x290485 (not (<= (- 20.0) (+ ?x934 S_0 L_1 A_3 ?x880))) (not (<= (- 25.0) (+ A_0 ?x819 L_1 ?x831 A_3 ?x880))))))
 (let (($x290664 (<= (+ ?x1469 ?x1672 ?x1668 (* (- 2.0) A_3)) (- 30.0))))
 (let ((?x1111 (+ A_1 ?x840)))
 (let (($x7247 (<= ?x1111 (- 5.0))))
 (let (($x302069 (<= 0.0 (+ ?x5060 (* 4.0 L_0) (* 4.0 S_1) S_0 L_1 A_3 ?x880))))
 (let (($x292680 (<= 0.0 (+ (* (- 4.0) A_0) (* 4.0 L_0) ?x18246 L_1 ?x831 A_3 ?x880))))
 (let ((?x22275 (+ (* (/ 1.0 5.0) A_2) (* (- (/ 1.0 5.0)) L_2) ?x934 (* (/ 6.0 5.0) L_0) S_1 (* (- (/ 1.0 5.0)) A_4))))
 (let (($x295577 (not (<= 0.0 ?x22275))))
 (let (($x310578 (not (<= 0.0 (+ (* (/ 1.0 4.0) A_3) L_1 ?x831 S_2 (* (- (/ 1.0 4.0)) A_4))))))
 (let (($x14319 (<= (+ ?x15440 ?x5508 ?x5496 S_2 ?x7882) 0.0)))
 (let (($x18677 (not (<= (+ (* (/ 2.0 3.0) A_1) ?x848 (* (/ 1.0 3.0) A_4)) 0.0))))
 (let ((?x1905 (* 4.0 A_2)))
 (let ((?x2851 (* (- 5.0) A_1)))
 (let ((?x1903 (* (- 4.0) L_2)))
 (let (($x288346 (<= 0.0 (+ A_0 ?x819 ?x1527 ?x1903 ?x2851 ?x1905))))
 (let (($x365074 (or (<= (+ ?x3018 ?x3023 S_1 ?x20295 (* (- (/ 1.0 3.0)) A_3)) 0.0) $x290356 $x290485 $x295486 $x295577)))
 (let (($x291548 (not (<= (- 20.0) (+ ?x828 A_1 L_2 ?x840)))))
 (let (($x286656 (not (<= (- 50.0) (+ ?x1469 ?x1672 ?x1668 (* (- 2.0) A_2))))))
 (let (($x291775 (not (<= (+ ?x828 A_1 L_0 ?x934) 5.0))))
 (let (($x351924 (or $x290485 $x291775 (not (<= (+ ?x828 L_2 A_1 ?x848) (- 10.0))) $x291791 $x292498 $x294028)))
 (let (($x366701 (or $x10302 (not (<= (+ A_4 ?x848) 5.0)) $x290485 (not (<= (- 25.0) (+ ?x828 A_1 L_2 ?x840 A_3 ?x880))) $x291775)))
 (let (($x294726 (<= 0.0 (+ (* (/ 1.0 2.0) A_4) ?x7937 ?x7895 ?x5508 ?x5496 ?x15440))))
 (let (($x294608 (not (<= 0.0 (+ ?x7950 ?x7951 (* (/ 5.0 2.0) S_2) L_1 ?x831 A_3 ?x880)))))
 (let (($x292660 (not (<= 0.0 (+ ?x3732 ?x1493 (* 2.0 S_2) S_0 L_1 A_3 ?x880)))))
 (let (($x7940 (not (<= (+ ?x7937 ?x7895 (* (/ 1.0 2.0) A_4) (* (- 1.0) S_3) ?x7923) 0.0))))
 (let (($x293690 (not (<= 0.0 (+ L_1 ?x831 S_2 ?x880 A_3 loss_rate_tol)))))
 (let (($x290768 (not (<= 0.0 (+ ?x1498 ?x1530 (* 2.0 S_2) ?x880 A_2 loss_rate_tol)))))
 (let (($x365270 (or (<= (+ ?x1513 ?x1469 ?x1672 (* (- 2.0) S_1) (* (- 2.0) A_2)) 0.0) $x290096 $x290485 $x290862 $x295577)))
 (let (($x289482 (not (<= 0.0 (+ ?x3012 ?x3013 (* (/ 10.0 3.0) S_3) ?x1668 (* (- 2.0) A_2))))))
 (let (($x291292 (not (<= (- 30.0) (+ A_0 ?x819 L_2 ?x840 A_3 ?x880)))))
 (let (($x440305 (or $x10302 $x290485 $x291292 $x292994 (not (<= (+ (* (- 2.0) A_3) (* 2.0 A_4)) 10.0)))))
 (let (($x473182 (or $x290183 $x290485 $x291564 $x291791 $x292994 (not (<= (+ (* (- 2.0) A_2) ?x1513) 10.0)) $x294194)))
 (let ((?x18893 (* (/ 1.0 5.0) A_4)))
 (let ((?x20842 (* (/ 4.0 5.0) L_0)))
 (let ((?x21871 (* (- (/ 4.0 5.0)) L_2)))
 (let ((?x21359 (* (/ 4.0 5.0) A_2)))
 (let (($x468051 (or $x15015 (not $x14993) (not (<= (+ ?x21359 ?x21871 ?x20842 ?x848 ?x18893) 0.0)) $x289569 $x290183 $x290485 $x303212)))
 (let (($x291480 (<= 0.0 (+ (* 4.0 L_1) ?x1904 (* 5.0 S_2) L_2 ?x840 A_3 ?x880))))
 (let (($x291481 (not $x291480)))
 (let ((?x1477 (* (- 3.0) A_2)))
 (let ((?x1868 (* 3.0 A_1)))
 (let ((?x1349 (* (- 3.0) L_1)))
 (let (($x869078 (or (not (<= (+ A_3 ?x934 L_0 ?x1668 ?x1349 ?x1868 ?x1477) 0.0)) $x290485 $x290806 $x290883 $x293131 $x294194)))
 (let (($x290430 (not (<= 0.0 (+ L_1 ?x831 S_3 ?x880 A_2 loss_rate_tol)))))
 (let (($x290362 (<= 0.0 (+ L_1 ?x831 ?x1382 L_2 ?x840))))
 (let (($x290357 (not $x290362)))
 (let (($x437255 (or (not (<= (+ A_4 ?x1469 ?x1672 (* (- 2.0) S_1) ?x840) 0.0)) (not $x2609) $x290096 $x290485)))
 (let (($x291318 (not (<= (+ ?x840 A_4) 10.0))))
 (let ((?x22077 (* (- (/ 2.0 3.0)) L_2)))
 (let ((?x2954 (* (- (/ 1.0 3.0)) L_0)))
 (let ((?x1421 (* (- 1.0) S_3)))
 (let ((?x2965 (* (/ 1.0 3.0) A_0)))
 (let ((?x24024 (* (/ 2.0 3.0) A_3)))
 (let (($x861582 (or (<= (+ ?x24024 ?x2965 ?x1421 ?x2954 ?x22077) 0.0) $x290183 $x290485 $x291318 $x292994 (not (<= (+ A_0 ?x819 L_2 ?x880) (- 20.0))))))
 (let ((?x1535 (* (- 4.0) A_0)))
 (let ((?x3397 (* 4.0 L_0)))
 (let ((?x5145 (* 5.0 A_1)))
 (let ((?x1633 (* (- 5.0) L_1)))
 (let (($x290097 (not (<= 0.0 (+ ?x1492 ?x1493 (* 3.0 S_2) L_2 ?x840 A_3 ?x880)))))
 (let (($x292573 (not (<= 0.0 (+ ?x1492 L_0 S_0 ?x880 L_1 ?x837 ?x1495 loss_rate_tol)))))
 (let (($x290906 (not (<= 0.0 (+ ?x880 ?x1498 ?x1494 ?x1530 (* 3.0 A_2) loss_rate_tol)))))
 (let (($x290120 (not $x288346)))
 (let ((?x1510 (* 3.0 A_2)))
 (let ((?x1508 (* (- 3.0) L_2)))
 (let ((?x1526 (* 5.0 S_0)))
 (let ((?x1525 (* (- 8.0) A_0)))
 (let (($x745 (<= 0.0 (+ ?x1525 ?x1504 ?x1526 ?x1527 ?x1508 ?x1510))))
 (let (($x743 (not $x745)))
 (let (($x1935 (<= (+ ?x1469 ?x819 ?x1486 L_1 ?x837 ?x1530 A_2) 0.0)))
 (let (($x440863 (or $x10302 $x290485 $x291481 $x294726 (not (<= 0.0 (+ ?x7937 ?x7895 (* (/ 1.0 2.0) S_2) L_1 ?x831))))))
 (let (($x286465 (not (<= 0.0 (+ ?x3732 ?x1504 (* 5.0 S_2) ?x1668 (* (- 2.0) A_2))))))
 (let (($x290766 (not (<= 0.0 (+ (* 3.0 L_1) (* (- 3.0) A_1) ?x9569 L_2 ?x840)))))
 (let (($x11351 (<= (+ (* (- 2.0) A_3) ?x1489 ?x1668 (* (- 2.0) A_2) (* 2.0 A_4)) 0.0)))
 (let (($x294953 (<= 0.0 (+ (* (- (/ 1.0 2.0)) A_2) ?x7882 (* (/ 1.0 2.0) A_4) A_0 ?x819 ?x5508 ?x831))))
 (let (($x394909 (or (not (<= (+ ?x828 A_1 (* (- 1.0) S_2)) 0.0)) $x290485 $x290805 $x290862 $x291564 $x294953)))
 (let (($x5913 (not (<= (+ ?x1667 (* 2.0 A_1) A_4 (* (- 3.0) S_3) ?x837) 0.0))))
 (let (($x11475 (<= (+ ?x1513 ?x934 ?x1421 L_0 ?x1506 ?x1494 ?x1495) 0.0)))
 (let (($x419289 (or $x11475 (<= (+ A_2 ?x837 A_0 ?x819 (* (- 2.0) S_1)) 0.0) $x290485 $x290805 $x290862)))
 (let (($x298611 (not (<= 0.0 (+ (* (- (/ 7.0 3.0)) A_0) ?x3013 ?x3943 S_0 L_1 A_3 ?x880)))))
 (let (($x294328 (not (<= 0.0 (+ ?x3018 ?x3023 (* (/ 5.0 3.0) S_3) L_1 ?x831 A_3 ?x880)))))
 (let (($x11345 (<= (+ ?x3006 ?x3007 (* (/ 1.0 3.0) S_3) ?x880 A_3) 0.0)))
 (let ((?x6404 (* 7.0 A_2)))
 (let ((?x6403 (* (- 7.0) A_1)))
 (let ((?x5192 (* 7.0 L_1)))
 (let ((?x6402 (* (- 6.0) L_2)))
 (let (($x290869 (not (<= 0.0 (+ A_0 ?x819 ?x6402 ?x5192 ?x6403 ?x6404 ?x880)))))
 (let (($x290713 (<= 0.0 (+ (* (- 12.0) A_0) ?x5005 (* 7.0 S_0) ?x3294 ?x5192 ?x6404 ?x1506))))
 (let (($x290714 (not $x290713)))
 (let (($x289422 (<= 0.0 (+ ?x1498 ?x831 S_0 ?x880 ?x837 ?x934 A_2 A_3 loss_rate_tol))))
 (let (($x289016 (not $x289422)))
 (let (($x288715 (<= 0.0 (+ ?x5192 (* (- 3.0) A_1) (* 4.0 S_0) ?x1508 ?x1535 ?x1510))))
 (let (($x287302 (not $x288715)))
 (let ((?x1659 (* (- 2.0) A_2)))
 (let ((?x1509 (* 2.0 A_1)))
 (let (($x23138 (<= (+ ?x24024 ?x3018 ?x3023 (* (/ 4.0 3.0) L_2) ?x1667 ?x1509 ?x1659) 0.0)))
 (let (($x289396 (not (<= 0.0 (+ ?x1525 (* 8.0 L_0) (* 10.0 S_1) ?x1668 ?x1659)))))
 (let (($x1836 (<= (+ A_0 ?x819 ?x1421 ?x1498 ?x1494 ?x1530 ?x1495) 0.0)))
 (let (($x42835 (<= (+ A_3 ?x8779 ?x7923 ?x7937 (* (/ 1.0 2.0) L_0) ?x1486 ?x880 ?x828) 0.0)))
 (let (($x11263 (<= (+ ?x1513 (* 4.0 A_0) (* (- 4.0) L_0) (* (- 6.0) S_2) ?x1494) 0.0)))
 (let (($x1874 (<= (+ A_0 ?x819 (* (- 1.0) S_2) L_1 ?x837 ?x831 A_2) 0.0)))
 (let ((?x1507 (* 3.0 L_1)))
 (let (($x292644 (<= 0.0 (+ ?x5060 ?x1493 (* 3.0 S_0) ?x1507 ?x1494 ?x1495 A_3 ?x880))))
 (let (($x287709 (not (<= 0.0 (+ ?x1492 L_0 S_0 ?x1506 L_1 ?x837 A_2 ?x1513 ?x4990)))))
 (let ((?x6743 (+ (* 11.0 L_1) ?x2851 (* 6.0 S_0) ?x3294 (* (- 6.0) A_0) (* 6.0 A_2) ?x880)))
 (let ((?x1902 (* 4.0 L_1)))
 (let (($x288126 (<= 0.0 (+ ?x1902 ?x1530 (* 2.0 S_0) ?x880 ?x1494 ?x1492 ?x1510 loss_rate_tol))))
 (let (($x287626 (not $x288126)))
 (let (($x291418 (<= 0.0 (+ (* 9.0 L_1) ?x1904 ?x1526 ?x1903 ?x5060 ?x1905 A_3 ?x880))))
 (let (($x836868 (or $x10302 $x11345 $x290485 (not (<= 0.0 (+ ?x934 L_0 ?x1382 L_2 ?x840 A_3 ?x880))))))
 (let (($x290475 (<= 0.0 (+ (* (/ 3.0 2.0) L_1) ?x5575 (* (/ 5.0 2.0) S_3) L_2 ?x840 A_3 ?x880))))
 (let (($x290088 (not (<= 0.0 (+ ?x5060 ?x5005 (* 6.0 S_1) L_2 ?x840 A_3 ?x880)))))
 (let (($x737 (not (<= 0.0 (+ ?x934 S_0 L_1)))))
 (let (($x733 (= ?x828 ?x819)))
 (let (($x452046 (or $x733 $x737 (not (<= 0.0 (+ ?x840 L_2 S_3 A_0 ?x819 L_1 ?x831))))))
 (let ((?x1835 (* (- 1.0) S_2)))
 (let ((?x2148 (+ ?x828 A_1 ?x1835)))
 (let (($x2129 (<= ?x2148 0.0)))
 (let (($x459423 (or (<= (+ (* (/ 4.0 3.0) A_0) ?x2954 ?x3003 ?x1486 ?x828 L_2 ?x840) 0.0) (<= (+ ?x5447 ?x5526 ?x5436 ?x1486 L_2 A_0 ?x840) 0.0) $x10302)))
 (let (($x495102 (or $x10302 (<= (+ ?x1469 ?x819 ?x1486 ?x828 L_2 ?x840) (- 10.0)) (<= (+ ?x1667 A_1 ?x1486 L_2 A_0 ?x840) (- 5.0)))))
 (let (($x493730 (or (<= (+ ?x934 L_0 S_3 ?x1349 (* 3.0 L_2) ?x1868 ?x1477) 0.0) $x10302)))
 (let (($x408578 (or $x10302 (not (<= (+ A_0 ?x819 ?x1486 L_1 ?x837 ?x831 A_2) 0.0)) $x287756)))
 (let (($x291422 (or $x2609 (<= (+ A_0 ?x819 ?x1421) (- 10.0)) (<= (+ ?x828 A_1 ?x1421) (- 5.0)))))
 (let (($x412365 (or (<= (+ ?x1535 ?x3397 (* 6.0 S_1) ?x1668 (* (- 2.0) A_3)) 0.0) $x10302 $x11351 $x290917)))
 (let (($x413205 (or (<= (+ ?x934 L_0 S_2 ?x1667 ?x1668 ?x1509 ?x1659) 0.0) (not (<= (+ ?x934 L_0 S_2 ?x1509 ?x1659) 0.0)))))
 (let (($x395465 (or (not (<= (+ A_0 S_2 ?x1486 ?x840) 0.0)) (<= (+ A_0 S_2 ?x1486 ?x828 L_2 ?x840) 0.0))))
 (let (($x1821 (or $x2129 (<= (+ (* (/ 4.0 3.0) A_0) (* (- (/ 4.0 3.0)) L_0) ?x3003 ?x1481) 0.0))))
 (let (($x287733 (or $x733 (not (<= (+ ?x819 S_0 ?x1507 ?x837 ?x1530 A_2) 0.0)) (<= (+ ?x819 ?x1481 S_0 L_1 ?x837 A_2) 0.0) $x1874)))
 (let (($x347532 (or (<= (+ ?x934 L_0 S_1 ?x828 L_2 A_1 ?x840) 0.0) (not (<= (+ ?x1492 ?x1493 ?x1489 ?x1509 ?x1659) 0.0)))))
 (let (($x41 (>= A_1 A_0)))
 (let (($x42 (>= A_2 A_1)))
 (let (($x43 (>= A_3 A_2)))
 (let (($x44 (>= A_4 A_3)))
 (and (<= ?x828 ?x819) $x44 $x43 $x42 $x41 (<= ?x837 ?x828) (or $x699 (<= (+ ?x1492 ?x1493 ?x1489 ?x1509 ?x1659) 0.0)) $x347532 (or $x733 (<= (+ ?x934 ?x1421 S_0 L_1 ?x837 A_2) 0.0) $x1836) (or (<= (+ ?x934 S_0 L_1) 0.0) $x1874) $x287733 $x1821 (or (<= (+ ?x934 ?x1421 L_0 ?x1489) 0.0) $x2609) (or $x699 (<= (+ A_0 S_2 ?x1486 ?x840) 0.0)) $x395465 (or $x2129 (<= (+ ?x1469 ?x1672 ?x1481) (- 10.0))) (or $x699 (not (<= 0.0 (+ S_2 L_2 ?x840)))) (or $x699 (<= (+ ?x934 L_0 S_2 ?x1509 ?x1659) 0.0)) $x413205 (or (<= (+ ?x828 L_2 A_1 ?x840) (- 5.0)) $x699) (or $x699 (not (<= 0.0 (+ ?x5490 ?x5526 ?x5436 L_2 ?x840)))) $x412365 (or $x733 (<= (+ ?x819 S_0 ?x1507 ?x837 ?x1530 A_2) 0.0) $x2129 $x287756) (or $x733 $x737 $x287756) $x291422 $x408578 $x493730 (or $x10302 $x289482 $x290485 $x290883 $x291791) (or (not (<= (- 5.0) (+ ?x828 A_1 L_2 ?x840))) $x10302 $x290476) (or (not (<= (- 5.0) (+ ?x828 A_1 L_2 ?x840))) $x10302 $x287756) $x495102 (or $x10302 $x286465 $x290356 $x290485 $x290817) $x459423 (or $x10302 $x289482 $x290485 $x290817 $x290883) (or $x10302 $x289482 $x290485 $x290805 $x290883) (or $x15188 $x287302 $x287626 $x287756 $x290356 $x290485) (or $x10302 $x290096 $x290357 $x290485) (or $x2129 (<= (+ ?x840 L_2 S_3 A_0 ?x1835 ?x819) 0.0)) (or $x733 $x737 (not (<= 0.0 (+ S_1 L_1 ?x831)))) (or (<= (+ ?x934 L_0 ?x1382 L_1 ?x880) 0.0) $x290485 $x290917 $x291318) (or (<= (+ ?x934 L_0 ?x1382 L_1 ?x880) 0.0) $x290485 $x291791 $x294654) $x452046 (or $x10302 $x289482 $x290485 $x290805 $x291564) (or $x10302 $x289396 $x290096 $x290485) (or $x10302 $x290088 $x290096 $x290485) (or $x5097 $x10302 $x286656 $x289569 $x290485) (or $x10302 $x11263 $x286656 $x290485 $x291791 $x292994) (or (<= (+ ?x934 L_0 ?x1382 L_1 ?x880) 0.0) $x290485 $x290883 $x293076) (or $x10302 $x286465 $x290485 $x290805 $x290917) (or $x733 $x737 $x291775) (or $x10302 $x290357 $x290456 $x290485) (or $x10302 $x290485 $x290766 $x293690) (or $x15188 $x288346 $x290485 $x290714 $x290869) (or $x10302 $x290456 (not $x290475) $x290485) (or (<= (+ ?x934 L_0 ?x1382 L_1 ?x880) 0.0) $x290485 $x290664 $x290917 $x292724) (or $x743 $x1874 $x15188 $x290485 $x290917 $x292573) (or $x743 $x15188 $x287709 $x290356 $x290485 $x290513) (or $x743 $x15188 $x287709 $x290120 $x290356 $x290485) $x836868 (or (<= (+ L_1 ?x831 S_2 ?x880 A_3) 0.0) $x216784 $x290485) (or $x10302 $x23138 $x289396 $x290485 $x290805) (or $x10302 $x11475 $x289396 $x290485 $x290805) (or $x7247 $x289569 $x290183 $x290485 $x290549 $x303212) (or $x1836 $x5097 $x11263 $x15188 $x290485 $x290714 $x292573) (or $x5097 $x10302 (<= (+ ?x880 A_3) (- 5.0)) $x290485 $x291292) (or $x743 $x15188 $x287756 $x290485 $x292573 $x294654) (or $x10302 $x289482 $x290485 $x290917 $x293076) (or $x10302 $x289482 $x290485 $x293076 $x294654) (or $x15188 $x287756 $x289016 $x290485 (not $x291418)) (or $x11475 $x290485 $x290817 $x291168) (or $x15188 $x287626 $x287756 $x290362 $x290485 (not (<= 0.0 ?x6743))) (or $x10302 $x289482 $x290356 $x290485 $x290805) (or $x14993 $x290485 $x291564 $x292724 $x293131 $x294766) (or $x15188 $x287709 $x290356 $x290485 $x290513 (not $x292644)) (or $x1874 $x5097 $x11263 $x15188 $x290485 $x290714 $x292573) (or $x1935 $x5097 $x11263 $x15188 $x290485 $x290714 $x292573) (or $x42835 $x290485 $x290805 $x290862) (or $x743 $x1836 $x15188 $x290485 $x291564 $x292573) (or $x10302 $x289396 $x290485 $x290805 $x291564) (or $x289659 $x290485 $x290817 $x294654) (or $x10302 $x286465 $x290485 $x290817 $x291564) (or $x10302 $x23138 $x290485 $x290805 $x290862) (or $x15188 $x287302 $x287756 $x289016 $x290485) (or $x10302 $x289482 $x290485 $x290969) (or $x745 $x15188 $x290485 $x290714 $x290869) (or $x11345 $x15188 $x290485 $x294328 $x298611) $x419289 (or $x5913 $x290430 $x290485) (or $x289659 $x290485 $x290917 $x293076) (or $x10302 $x286656 $x290485 $x291548 $x291564 $x291791) (or $x10302 $x289569 $x290097 $x290485) (or $x10302 $x290485 $x290664 $x292724 $x294654) (or $x289659 $x290356 $x290485 $x293076) (or $x10302 $x289482 $x290485 $x291564 $x293076) $x394909 (or $x10302 $x286465 $x290485 $x291495) (or $x10302 $x286465 $x290356 $x290485 $x290768) (or (<= (+ ?x1492 ?x1493 ?x1489 ?x880 A_2) 0.0) $x290485 $x290862 $x290917) (or (<= (+ ?x934 L_0 ?x1382 L_1 ?x880) 0.0) $x290485 $x290805 $x290917) (or (<= (+ ?x934 L_0 ?x1382 L_1 ?x880) 0.0) $x290485 $x290917 $x291791) (or $x10302 $x289482 $x290485 $x290883 $x293076) (or $x8700 $x14993 $x287756 $x290430 $x290485 $x298371) (or $x10302 $x11351 $x289482 $x290805 $x290917) (or $x10302 $x290356 $x290485 $x290766 $x290768) (or $x290485 $x290805 $x290862 $x290917 $x295486 $x295577) (or $x15015 $x290485 $x291564 $x293131 $x294194 $x303212) (or $x19459 $x290485 $x291564 $x295486 $x295577) (or $x290485 $x290805 $x290862 $x291564 $x295486 $x295577) (or $x10302 $x286465 $x290485 $x290817 $x294654) (or $x289659 $x290485 $x292456) (or $x289659 $x290485 $x291564 $x293076) $x440863 (or $x10302 $x286656 $x290485 $x291548 $x291791 $x294654) (or $x743 $x1935 $x15188 $x290485 $x292573 $x294654) (or $x743 $x15188 $x290120 $x290356 $x290485 $x292573) (or $x289659 $x290485 $x290969) (or $x743 $x15188 $x290120 $x290485 $x290883 $x290906 $x292573) (or $x10302 $x290356 $x290476 $x290485 $x291548 $x291791) (or $x10302 $x290097 $x290485 $x291495) (or $x290183 $x290485 (<= 0.0 (+ ?x1633 ?x5145 ?x3397 L_2 ?x1535 ?x840)) $x292994) (or $x6109 $x7247 $x290485 $x290883 $x293131 $x294194) (or $x10302 $x289482 $x290485 $x290805 $x290917) (or $x289659 $x290485 $x290883 $x291791) $x861582 $x437255 (or $x10302 $x290357 $x290430 $x290485) (or $x290485 $x290806 $x290917 $x293131 $x294194 $x303212) $x869078 (or $x10302 $x289482 $x290356 $x290485 $x293076) (or $x10302 $x290485 $x291481 $x291836) (or $x216784 $x290362 $x290485 $x290768) (or $x289659 $x290485 $x290817 $x290883) (or $x289659 $x290485 $x293076 $x294654) (or $x10302 $x289482 $x290485 $x290917 $x291791) $x468051 (or $x290183 $x290485 $x290917 $x291791 $x292994 $x294194 $x303212) (or $x290485 $x290805 $x290862 $x290883 $x295486 $x295577) (or $x8700 $x14993 $x287756 $x290356 $x290485 $x290768 $x294478) $x473182 (or $x290485 $x291168 $x294616 $x294992 $x308818) (or $x289659 $x290485 $x290883 $x293076) (or $x289659 $x290356 $x290485 $x290805) (or $x289659 $x290485 $x290805 $x290883) (or $x290356 $x290485 $x290817 $x291168 $x294616) $x440305 (or $x14993 $x19459 $x290485 $x290917 $x306590) (or $x8700 $x14993 $x290485 $x290805 $x290917 $x301644 $x306590) (or $x10302 $x15015 $x290356 $x290485 $x293131) (or $x10302 $x289482 $x290356 $x290485 $x291791) (or $x10302 $x289482 $x289569 $x290485) (or $x14678 $x290456 $x290485) (or (<= (+ ?x18525 ?x3006 ?x3007 S_2 ?x22439) 0.0) $x290485 $x294616 $x294654) (or $x289659 $x290485 $x291791 $x294654) $x365270 (or $x1883 $x216784 $x290485 $x307944) (or $x14319 $x290356 $x290485 $x310578) (or $x21790 $x216784 $x290485 $x290768) (or $x18677 $x216784 $x290356 $x290485 $x290768) (or $x21790 $x216784 $x290485 $x293690) (or $x7940 $x290485 $x290883 $x290983 $x293948) (or $x15188 $x290485 $x291495 $x292660 $x294608) (or $x287756 $x290096 $x290485 $x290862 $x294726) (or $x8700 $x14993 $x290485 $x291836 $x293612 $x294931) (or $x290183 $x290485 $x290883 $x291791 $x292994 $x294194 $x303212) $x366701 $x351924 (or $x289569 $x290183 $x290485 $x292498 $x294028 $x294194) (or $x290485 $x290862 $x290883 $x290983 $x293948 $x295486 $x295577) (or $x10302 $x286656 $x289569 $x290485 $x291548) $x365074 (or (<= (+ ?x18525 ?x3006 ?x3007 S_2 ?x22439) 0.0) $x290485 $x290883 $x294616) (or $x14993 $x288346 $x290485 $x291495 $x293612 $x293839) (or $x21790 $x216784 $x290485 $x307944) (or $x18677 $x216784 $x290485 $x294992 $x307944) (or $x14319 $x290485 $x294992 $x310578) (or $x15015 $x15188 $x290485 $x290917 $x293131 $x294766) (or $x289659 $x290485 $x290805 $x290917) (or $x6109 $x290183 $x290485 $x291791 $x294028 $x294194 $x294654) (or $x290356 $x290485 $x290805 $x290862 $x295486 $x295577) (or $x15188 $x290096 $x290485 (not $x292680) (not $x302069)) (or $x7247 $x289902 $x290485 $x290664 $x294194 $x294381) $x471757 (or $x14993 $x287756 $x290485 $x316741 $x327074) (or $x14993 $x290356 $x290485 $x291791 $x292994 $x293012 $x294766 $x295151) (or $x6109 $x290183 $x290356 $x290485 $x291791 $x294028 $x294194) (or $x5097 $x6109 $x290183 $x290485 $x290883 $x294194 $x294694) (or $x8700 $x14993 $x290356 $x290485 $x291791 $x294766 $x295151) (or $x14993 (<= (+ ?x1469 ?x1672 ?x1481) (- 10.0)) $x290485 $x298583 $x327074) (or $x289569 $x290476 $x290485 $x292724 $x294194 $x303212) (or $x290485 $x304927 (not $x317355)) (or (<= (+ ?x18525 ?x3006 ?x3007 S_2 ?x22439) 0.0) $x290485 $x294616 $x301453) (or $x15188 (<= (+ ?x18525 ?x3006 ?x3007 S_2 ?x22439) 0.0) $x290485 $x293612 $x301453) $x449857 (or $x289659 $x290485 (not $x298334)) (or $x290485 $x290817 $x291168 $x291564 $x294616) (or $x5878 $x290485 $x304927) (or $x6109 $x8700 $x14993 $x290485 $x290883 $x294694 $x294766 $x295151) (or $x290485 $x292456 $x304927) $x464561 $x833840 $x364237 (or $x8700 $x14993 $x290485 $x293076 $x293355 $x294654 $x294931) $x352597 (or $x290183 $x290485 $x290806 $x292498 $x294194 $x294381 $x303201) (or $x289659 $x290485 $x298230) (or $x5914 $x290485 $x290513 $x290883 $x291168 $x294813) (or $x5914 $x216784 $x290485 $x290883 $x294813) (or $x1883 $x216784 $x290485 $x290883 $x294813) (or $x21790 $x216784 $x290485 $x290883 $x294813) (or $x8700 $x14993 $x290485 $x293355 $x294931 $x298583) (or $x8700 $x14993 $x290485 $x290969 $x293355 $x294931) (or $x289659 $x290485 $x290883 $x294694 $x300091) (or $x14678 $x290485 $x316741) (or $x8700 $x14993 $x290485 $x291564 $x293076 $x293355 $x294931) (or $x290485 $x290805 $x290862 $x290917 $x295486 $x329413) (or $x15188 $x290485 $x293355 $x294931 $x298230) (or $x14993 (<= (+ ?x18525 ?x3006 ?x3007 S_2 ?x22439) 0.0) $x290485 $x291564 $x293612) (or $x14993 $x19459 $x290485 $x291564 $x306590) (or $x290485 $x290817 $x291168 $x294616 $x294654) (or $x14993 $x288410 $x290485 $x290917 $x293076 $x293355 $x294931) (or $x5097 $x6109 $x290183 $x290485 $x294194 $x294381 $x303201) (or $x8700 $x14993 $x290485 $x291495 $x293612 $x294931) (or $x290485 $x290805 $x290862 $x290883 $x295486 $x329413) (or $x14993 $x288410 $x290485 $x290805 $x291564 $x301644 $x306590) (or $x290485 $x290805 $x290862 $x291564 $x295486 $x329413) $x850269 (or $x8700 $x14993 $x290485 $x290817 $x291564 $x293612 $x294931) (or $x8700 $x14993 $x290485 $x290817 $x290883 $x293612 $x293839) (or $x290183 $x290485 $x292498 $x294028 $x294194 $x294381 $x303201 $x305031) (or $x8700 $x14993 $x287756 $x290485 $x294478 $x294992 $x307944) (or $x290485 $x291168 $x294616 $x301453 $x308818) (or $x15188 $x290485 $x290917 $x291791 $x294766 $x295151) (or $x8700 $x14993 $x289569 $x290485 $x294766 $x295151) (or $x290485 $x290862 $x290883 $x290983 $x293948 $x295486 $x329413) (or $x1883 $x289569 $x290183 $x290485 $x294028 $x296814) (or $x289569 $x290183 $x290485 $x290549 $x294028 $x303212) (or $x289569 $x289902 $x290183 $x290485 $x294194 $x297202) (or $x8700 $x14993 $x290485 $x290883 $x293612 $x293839 $x294813) (or $x14678 $x290485 $x299244) (or $x290485 $x304927 $x316741) (or $x8700 $x14993 $x290485 $x291495 $x293612 $x293839) (or $x2609 $x8700 $x14993 $x290485 $x290883 $x290983 $x301644 $x306590) (or $x8700 $x14993 $x290485 $x290883 $x293076 $x293355 $x294931) (or $x8700 $x14993 $x290096 $x290485 $x301644 $x306590) (or $x8700 $x14993 $x290485 $x290817 $x293612 $x294654 $x294931) (or $x290485 $x291168 $x291495 $x294616) (or $x5878 $x14993 $x290485 (not $x302723)) (or $x5097 $x285546 $x290183 $x290485 $x301036 $x303201 $x303212) (or $x290183 $x290485 $x290549 $x290806 $x301036 $x303201 $x303212) (or $x290183 $x290485 $x294194 $x294381 $x297202 $x301036 $x303201 $x303212) (or $x8700 $x14993 $x290485 $x290883 $x294694 $x294766 $x295151 $x300091) (or $x7247 $x285546 $x290183 $x290485 $x294694 $x300091 $x303212) (or $x14993 $x290485 $x292456 $x294931 $x327074) (or $x290485 $x290883 $x291168 $x294616 $x294813) (or $x14993 $x15015 $x290485 $x293131 $x294654 $x294766) (or $x8700 $x14993 $x290485 $x294381 $x294766 $x295151 $x301036 $x303201 $x319893) (or $x290485 $x290817 $x290883 $x291168 $x294616) (or $x290183 $x294021 $x294694 $x297202 $x300091 $x301821 $x303212) (or $x15188 $x290485 $x294931 $x316741 $x327074) (or $x14993 (<= (+ ?x18525 ?x3006 ?x3007 S_2 ?x22439) 0.0) $x290356 $x290485 $x293612) (or $x19459 $x290356 $x290485 $x292498 $x295486) (or $x14993 $x290485 $x291791 $x292994 $x293012 $x294654 $x294766 $x295151) (or $x290096 $x290485 $x290862 $x295486 $x329413) (or $x14993 $x290485 $x290883 $x291791 $x292994 $x293012 $x294766 $x295151) (or $x8700 $x14993 $x290485 $x292456 $x293355 $x294931) (or $x8700 $x14993 $x290356 $x290485 $x290817 $x293612 $x294931) (or $x8700 $x14993 $x290356 $x290485 $x290805 $x301644 $x306590) (or $x14993 $x288410 $x290485 $x290805 $x290883 $x301644 $x306590) (or $x8700 $x14993 $x287756 $x290456 $x290485 (not $x296815)) (or $x14993 $x290485 $x294931 $x298583 $x327074) (or $x8700 $x14993 $x290485 $x290883 $x290983 $x293948 $x301644 $x306590) (or $x8700 $x14993 $x287756 $x290485 $x291836 $x294478) (or $x290356 $x290485 $x290805 $x290862 $x295486 $x329413) (or $x8700 $x14993 $x290356 $x290485 $x293076 $x293355 $x294931) (or $x1883 $x290183 $x290485 $x294028 $x296814 $x303201 $x305031) (or $x6109 $x290183 $x290485 $x294028 $x294194 $x294381 $x303201 $x319893) (or $x15188 $x290466 $x290485 $x298371 $x299244) (or $x290183 $x290485 $x294028 $x294194 $x294381 $x301036 $x303201 $x303212 $x319893) $x349554 (or $x8700 $x14993 $x287756 $x290456 $x290485 $x298371) (<= (+ ?x1486 S_0) 0.0) (<= (+ ?x934 L_0 S_0) 0.0) (<= (+ L_1 ?x831 S_1) 0.0) (<= (+ ?x1481 ?x1489) 0.0) (<= (+ ?x848 S_3 L_2) 0.0) (<= (+ ?x1421 S_2) 0.0) (<= (+ S_2 L_2 ?x840) 0.0))))))))))))))))))))))))))))))))))))))))))))))))))))))))))))))))))))))))))))))))))))))))))))))))))))))))))))))))))))))))))))))))))))))))))))))))))))))))))))))))))))))))))))))))))))))))))))))))))))))))))))))))))))))))))))))))))))))))))))))))))))))))))))))))))))))))))))))))))))))))))))))))))))))))))))))))))))))))))))))))))))))
(check-sat)
